1878740
0,93,34,54,49,39,35,6,107,27,178,77,129,132,228,209,161,134,66,70,117,86,19,100,182,48,73,156,206,42,82,162,225,14,188,222,133,59,155,210,90,8,223,32,202,67,88,106,115,165,204,15,112,18,10,114,92,167,211,109,12,16,29,63,46,47,224,4,219,193,9,173,44,102,145,152,216,11,157,76,201,23,120,103,229,81,84,175,5,108,89,185,87,227,128,141,169,149,170,3,20,186,171,203,226,166,190,22,85,69,123,125,13,64,163,113,187,135,208,192,130,72,68,2,207,121,119,96,110,164,144,43,143,21,36,195,33,214,168,74,101,111,154,26,191,95,25,136,137,7,158,30,198,217,194,180,172,57,179,189,65,104,105,127,140,99,91,55,53,52,17,174,215,218,98,118,51,79,60,1,221,40,181,138,142,200,199,205,41,176,159,97,126,146,38,116,80,61,150,183,160,37,58,220,212,196,153,213,45,197,83,78,75,56,124,177,148,131,24,122,28,94,147,151,50,184,62,31,139,71,0